543 5
10 10 10 10 10 

0 0 0 0 0 0 5 2 14 26 38 50 
0 0 0 0 0 0 3 3 4 477 
6 0 0 0 0 5 2 7 5 
5 0 0 0 0 5 2 7 6 
2 0 0 0 0 10 1 6 
9 0 0 0 0 10 2 12 8 
8 0 0 0 0 6 2 12 8 
7 0 0 0 0 4 1 9 
10 0 0 0 0 10 1 10 
6 0 0 0 0 8 1 11 
8 0 0 0 0 8 1 13 
5 0 0 0 0 9 1 13 
0 0 0 0 0 0 1 62 
0 0 0 0 0 0 3 15 17 18 
1 4 0 0 0 0 1 16 
5 5 0 0 0 0 1 19 
7 5 0 0 0 0 2 19 43 
5 9 0 0 0 0 1 19 
6 10 0 0 0 0 1 20 
3 9 0 0 0 0 1 21 
7 9 0 0 0 0 2 24 22 
10 7 0 0 0 0 1 23 
8 10 0 0 0 0 1 25 
4 7 0 0 0 0 1 25 
0 0 0 0 0 0 1 62 
0 0 0 0 0 0 2 27 35 
1 0 2 0 0 0 2 29 28 
7 0 5 0 0 0 2 33 30 
5 0 10 0 0 0 2 33 32 
7 0 8 0 0 0 2 31 160 
4 0 4 0 0 0 1 32 
6 0 10 0 0 0 1 34 
5 0 8 0 0 0 1 34 
6 0 10 0 0 0 1 36 
5 0 8 0 0 0 1 36 
3 0 10 0 0 0 1 37 
0 0 0 0 0 0 1 62 
0 0 0 0 0 0 1 39 
8 1 0 0 0 0 3 44 41 40 
5 5 0 0 0 0 2 43 42 
2 10 0 0 0 0 2 43 42 
6 5 0 0 0 0 1 45 
2 9 0 0 0 0 1 45 
9 10 0 0 0 0 1 45 
3 7 0 0 0 0 2 46 413 
9 10 0 0 0 0 1 47 
3 10 0 0 0 0 1 48 
10 8 0 0 0 0 1 49 
0 0 0 0 0 0 1 62 
0 0 0 0 0 0 2 51 52 
2 0 0 8 0 0 2 60 53 
3 0 0 5 0 0 2 60 53 
8 0 0 6 0 0 1 54 
4 0 0 10 0 0 2 59 55 
9 0 0 7 0 0 1 56 
1 0 0 6 0 0 1 57 
7 0 0 10 0 0 1 58 
6 0 0 7 0 0 1 61 
5 0 0 6 0 0 2 61 377 
7 0 0 10 0 0 1 61 
0 0 0 0 0 0 1 62 
0 0 0 0 0 0 5 63 75 117 159 201 
0 0 0 0 0 0 2 64 65 
2 5 0 0 0 0 1 66 
9 3 0 0 0 0 1 66 
6 9 0 0 0 0 3 69 67 512 
4 7 0 0 0 0 1 68 
2 9 0 0 0 0 1 70 
9 9 0 0 0 0 1 70 
9 6 0 0 0 0 2 73 71 
4 8 0 0 0 0 1 72 
2 9 0 0 0 0 1 74 
9 10 0 0 0 0 1 74 
0 0 0 0 0 0 5 243 275 307 339 371 
0 0 0 0 0 0 3 76 84 90 
4 3 2 5 0 7 1 77 
9 8 10 2 0 5 1 78 
2 6 9 9 0 5 1 79 
8 8 8 6 0 8 1 80 
1 10 6 6 0 6 2 89 81 
10 10 3 10 0 10 1 82 
3 7 10 10 0 7 1 83 
6 9 6 9 0 7 1 85 
9 5 7 10 0 10 2 85 280 
4 6 10 3 0 8 1 86 
8 7 8 7 0 7 1 87 
8 7 10 10 0 10 1 88 
10 7 10 6 0 6 2 102 91 
5 9 10 10 0 7 2 102 91 
10 9 6 7 0 8 2 102 91 
10 8 7 9 0 10 2 115 92 
10 3 8 5 0 10 2 105 93 
10 9 6 7 0 9 2 114 94 
7 6 4 6 0 6 1 95 
2 9 6 4 0 5 1 96 
6 4 10 10 0 6 1 97 
2 6 4 10 0 7 2 111 98 
6 6 9 6 0 10 3 113 112 99 
4 8 10 10 0 6 1 100 
3 10 4 10 0 9 1 101 
5 10 10 9 0 10 1 103 
1 10 10 9 0 2 2 111 106 
6 10 7 7 0 6 1 104 
2 8 10 10 0 7 1 106 
3 7 10 6 0 6 1 106 
10 6 10 9 0 9 1 107 
7 8 6 4 0 8 1 108 
8 7 7 8 0 7 1 109 
8 9 9 4 0 8 1 110 
4 10 7 5 0 6 1 116 
7 5 5 10 0 5 1 116 
1 10 7 8 0 10 1 116 
7 5 6 6 0 8 1 116 
6 5 5 8 0 9 1 116 
8 10 8 10 0 10 1 116 
0 0 0 0 0 0 1 543 
0 0 0 0 0 0 3 118 132 157 
10 5 6 0 4 4 1 119 
8 7 6 0 6 9 1 120 
6 10 3 0 5 9 1 121 
2 10 7 0 6 10 1 122 
6 7 4 0 5 7 2 141 123 
2 6 8 0 10 7 1 124 
9 6 9 0 6 10 1 125 
9 9 7 0 10 10 1 126 
4 8 10 0 7 6 2 156 127 
5 4 8 0 7 6 1 128 
1 9 8 0 6 9 1 129 
4 6 10 0 8 6 1 130 
5 5 9 0 10 7 2 155 131 
6 6 7 0 9 8 3 154 153 133 
9 10 3 0 10 7 1 133 
2 10 10 0 4 10 1 134 
10 6 10 0 4 7 1 135 
4 6 6 0 10 8 1 136 
4 10 8 0 6 8 1 137 
3 6 8 0 9 3 2 152 138 
8 7 3 0 3 9 3 151 150 139 
2 10 10 0 9 4 1 140 
8 5 8 0 10 10 2 142 456 
1 10 8 0 9 7 1 142 
6 8 6 0 5 10 1 143 
6 8 9 0 5 5 1 144 
1 10 7 0 7 10 1 145 
7 7 5 0 5 10 1 146 
9 6 10 0 9 9 1 147 
9 8 8 0 10 6 1 148 
10 6 8 0 9 7 1 149 
4 6 8 0 4 6 1 158 
4 4 10 0 8 3 1 158 
5 6 9 0 10 7 1 158 
5 6 10 0 8 7 1 158 
5 10 8 0 10 10 1 158 
1 10 3 0 7 8 1 158 
2 10 7 0 10 7 1 158 
6 10 7 0 10 8 1 158 
10 7 9 0 10 6 1 158 
0 0 0 0 0 0 1 543 
0 0 0 0 0 0 3 160 173 181 
5 3 7 0 5 7 1 161 
3 5 9 0 9 6 1 162 
7 8 9 0 10 6 1 163 
5 3 5 0 7 8 1 164 
2 9 5 0 6 5 2 175 165 
8 5 10 0 9 10 1 166 
8 7 9 0 10 10 1 167 
4 7 9 0 7 7 1 168 
6 6 9 0 5 10 1 169 
2 10 8 0 5 10 2 199 170 
2 7 6 0 10 7 1 171 
9 9 6 0 7 10 1 172 
10 8 9 0 6 10 2 198 174 
8 10 9 0 5 6 2 199 174 
9 7 4 0 8 7 3 197 190 176 
7 7 8 0 8 7 3 197 190 176 
6 6 10 0 4 5 1 177 
9 4 5 0 6 10 1 178 
9 9 6 0 10 3 2 179 415 
9 10 9 0 7 6 1 180 
10 10 3 0 9 10 2 196 182 
10 10 10 0 9 10 2 196 182 
1 3 7 0 7 10 3 195 194 183 
8 10 8 0 9 4 1 184 
1 6 5 0 8 9 1 185 
5 10 10 0 10 3 1 186 
7 10 4 0 9 9 1 187 
9 10 9 0 9 7 1 188 
1 5 4 0 6 7 1 189 
5 6 5 0 7 5 1 191 
2 8 10 0 8 8 1 191 
4 10 4 0 9 6 1 192 
6 10 10 0 7 8 1 193 
9 7 5 0 9 8 1 200 
2 4 9 0 9 9 1 200 
6 8 10 0 7 6 1 200 
8 7 10 0 4 6 1 200 
7 10 9 0 5 8 1 200 
7 7 8 0 7 7 1 200 
6 9 8 0 8 10 1 200 
0 0 0 0 0 0 1 543 
0 0 0 0 0 0 3 202 206 209 
9 3 4 10 0 3 1 203 
7 8 6 7 0 7 1 204 
6 5 6 6 0 10 1 205 
10 8 7 9 0 5 1 207 
7 6 10 3 0 5 1 207 
5 4 7 8 0 3 1 208 
5 9 8 9 0 10 2 213 210 
7 10 8 8 0 6 2 213 210 
7 10 5 3 0 6 1 211 
6 10 7 7 0 10 1 212 
4 5 10 10 0 4 1 214 
1 10 6 10 0 8 1 214 
2 10 9 5 0 8 1 215 
8 10 7 5 0 9 1 216 
8 9 10 4 0 7 1 217 
10 4 8 6 0 10 2 225 218 
1 4 8 7 0 9 2 227 219 
9 5 9 8 0 10 1 220 
9 7 3 7 0 10 2 241 221 
10 9 6 9 0 6 1 222 
8 8 8 10 0 10 1 223 
6 7 8 9 0 7 1 224 
2 8 4 10 0 8 2 240 226 
4 9 5 10 0 9 2 234 226 
10 10 8 4 0 4 4 239 238 228 386 
4 6 10 8 0 9 3 239 238 228 
10 8 8 10 0 6 1 229 
7 9 10 8 0 10 1 230 
2 7 6 5 0 7 1 231 
2 7 7 6 0 4 1 232 
7 10 7 6 0 10 1 233 
7 8 8 5 0 10 1 235 
6 6 10 10 0 4 1 235 
5 7 10 5 0 10 1 236 
4 8 7 6 0 6 1 237 
2 7 10 10 0 8 1 242 
3 7 8 8 0 6 1 242 
5 5 8 10 0 10 1 242 
9 9 10 9 0 9 1 242 
5 8 4 10 0 7 1 242 
0 0 0 0 0 0 1 543 
0 0 0 0 0 0 2 244 273 
9 5 3 0 0 6 1 245 
5 5 7 0 0 6 1 246 
1 8 7 0 0 9 1 247 
6 10 10 0 0 9 1 248 
10 7 4 0 0 8 3 272 271 249 
9 10 9 0 0 7 3 270 269 250 
10 6 10 0 0 10 3 268 267 251 
6 6 8 0 0 5 1 252 
2 5 6 0 0 10 2 253 457 
2 10 6 0 0 6 1 254 
1 9 6 0 0 8 1 255 
8 5 10 0 0 3 2 266 256 
4 3 6 0 0 9 1 257 
1 10 10 0 0 6 1 258 
2 7 7 0 0 8 1 259 
3 5 10 0 0 4 1 260 
6 7 5 0 0 10 1 261 
4 8 8 0 0 5 1 262 
3 8 10 0 0 3 1 263 
1 5 7 0 0 6 1 264 
8 10 10 0 0 6 1 265 
5 10 9 0 0 6 1 274 
6 10 5 0 0 10 1 274 
3 10 7 0 0 10 1 274 
10 2 5 0 0 10 1 274 
9 10 10 0 0 10 1 274 
8 8 6 0 0 9 1 274 
9 10 7 0 0 7 1 274 
3 6 8 0 0 10 1 274 
4 10 9 0 0 9 1 274 
0 0 0 0 0 0 1 543 
0 0 0 0 0 0 2 276 279 
2 0 4 4 0 3 1 277 
2 0 4 9 0 7 1 278 
5 0 10 10 0 10 2 281 280 
5 0 10 8 0 10 1 280 
7 0 5 8 0 9 2 282 384 
8 0 10 7 0 5 1 282 
2 0 10 6 0 10 2 286 283 
4 0 8 7 0 10 1 284 
4 0 9 6 0 10 2 289 285 
9 0 10 10 0 10 2 293 287 
4 0 6 8 0 10 2 289 287 
8 0 7 10 0 10 1 288 
3 0 7 8 0 4 2 295 290 
1 0 9 2 0 5 2 295 290 
4 0 6 8 0 9 1 291 
9 0 6 5 0 6 2 301 292 
10 0 5 7 0 7 2 300 294 
8 0 8 5 0 7 3 301 300 297 
1 0 6 8 0 7 1 296 
7 0 10 10 0 5 1 296 
1 0 6 7 0 4 1 297 
1 0 10 10 0 7 1 298 
6 0 5 6 0 10 1 299 
10 0 5 9 0 10 1 302 
10 0 10 5 0 5 1 302 
3 0 6 6 0 8 1 302 
2 0 8 9 0 7 1 303 
4 0 9 10 0 6 1 304 
2 0 6 8 0 6 1 305 
9 0 10 9 0 8 1 306 
0 0 0 0 0 0 1 543 
0 0 0 0 0 0 2 308 311 
1 3 3 0 3 0 1 309 
3 5 7 0 5 0 1 310 
10 8 9 0 7 0 1 312 
4 9 7 0 7 0 1 312 
9 9 8 0 8 0 1 313 
7 10 6 0 9 0 2 317 314 
10 6 10 0 9 0 1 315 
10 7 8 0 7 0 1 316 
8 8 10 0 6 0 3 320 319 318 
8 9 7 0 9 0 2 320 318 
3 8 10 0 8 0 2 322 321 
6 10 6 0 10 0 2 322 321 
4 5 8 0 7 0 2 321 394 
7 8 10 0 4 0 3 326 324 323 
10 10 10 0 10 0 3 326 324 323 
9 5 7 0 10 0 1 325 
4 10 7 0 8 0 1 325 
6 8 5 0 9 0 1 327 
8 7 4 0 4 0 1 327 
4 5 8 0 10 0 1 328 
5 7 10 0 7 0 1 329 
5 10 9 0 8 0 2 332 330 
9 8 5 0 9 0 1 331 
5 8 4 0 9 0 1 333 
3 10 10 0 7 0 1 333 
7 6 7 0 6 0 1 334 
7 8 7 0 4 0 1 335 
10 5 5 0 7 0 1 336 
7 5 9 0 10 0 1 337 
10 8 9 0 8 0 1 338 
0 0 0 0 0 0 1 543 
0 0 0 0 0 0 2 340 369 
5 4 4 0 0 6 1 341 
2 8 10 0 0 5 1 342 
9 10 7 0 0 10 1 343 
9 6 5 0 0 10 1 344 
9 10 4 0 0 6 2 368 345 
3 7 10 0 0 10 1 346 
4 7 4 0 0 6 1 347 
9 3 6 0 0 4 5 361 359 353 352 348 
8 9 3 0 0 5 2 349 412 
7 9 7 0 0 8 2 355 350 
10 10 10 0 0 4 1 351 
5 10 7 0 0 6 1 354 
4 10 8 0 0 10 1 355 
10 5 8 0 0 9 1 354 
10 3 10 0 0 6 1 356 
9 7 10 0 0 7 1 356 
6 7 5 0 0 10 1 357 
6 9 8 0 0 6 2 367 358 
2 5 8 0 0 9 1 360 
2 10 6 0 0 7 1 360 
7 4 10 0 0 8 1 362 
4 9 10 0 0 7 1 362 
4 4 10 0 0 8 1 363 
9 7 8 0 0 7 1 364 
10 6 6 0 0 4 1 365 
1 9 5 0 0 9 1 366 
1 10 7 0 0 10 1 370 
2 9 10 0 0 10 1 370 
9 10 9 0 0 8 1 370 
1 8 10 0 0 10 1 370 
0 0 0 0 0 0 1 543 
0 0 0 0 0 0 2 372 377 
5 0 0 0 0 4 3 381 376 373 
3 0 0 0 0 7 2 374 511 
9 0 0 0 0 6 1 375 
9 0 0 0 0 10 1 378 
10 0 0 0 0 8 1 378 
6 0 0 0 0 8 1 378 
7 0 0 0 0 9 1 379 
8 0 0 0 0 9 1 380 
4 0 0 0 0 9 1 382 
9 0 0 0 0 5 1 382 
0 0 0 0 0 0 5 383 405 417 439 461 
0 0 0 0 0 0 2 384 386 
9 0 0 5 3 0 2 389 385 
1 0 0 10 8 0 1 387 
5 0 0 7 8 0 1 387 
6 0 0 4 7 0 1 388 
10 0 0 10 8 0 1 390 
10 0 0 10 7 0 1 390 
7 0 0 5 7 0 2 395 391 
5 0 0 8 6 0 2 401 392 
7 0 0 10 10 0 2 393 498 
4 0 0 8 7 0 1 394 
7 0 0 9 10 0 2 403 396 
3 0 0 4 6 0 2 403 396 
10 0 0 7 8 0 1 397 
9 0 0 7 10 0 1 398 
4 0 0 10 10 0 1 399 
5 0 0 8 7 0 1 400 
6 0 0 3 9 0 1 402 
8 0 0 9 6 0 1 402 
8 0 0 6 3 0 1 404 
10 0 0 10 10 0 1 404 
0 0 0 0 0 0 1 543 
0 0 0 0 0 0 1 406 
7 0 0 6 0 0 2 408 407 
1 0 0 6 0 0 2 413 409 
5 0 0 4 0 0 2 413 409 
3 0 0 6 0 0 1 410 
6 0 0 10 0 0 1 411 
1 0 0 9 0 0 1 412 
3 0 0 8 0 0 3 415 414 465 
2 0 0 10 0 0 2 415 414 
8 0 0 10 0 0 1 416 
2 0 0 6 0 0 1 416 
0 0 0 0 0 0 5 483 495 507 519 531 
0 0 0 0 0 0 3 418 421 441 
8 0 10 1 0 0 1 419 
2 0 5 10 0 0 2 430 420 
3 0 10 10 0 0 3 435 425 422 
1 0 6 3 0 0 3 435 425 423 
6 0 8 10 0 0 1 423 
3 0 8 5 0 0 1 424 
1 0 3 8 0 0 1 426 
5 0 10 10 0 0 1 426 
6 0 7 9 0 0 1 427 
8 0 10 9 0 0 1 428 
1 0 10 7 0 0 1 429 
7 0 8 10 0 0 2 437 431 
8 0 6 10 0 0 1 431 
6 0 6 7 0 0 1 432 
10 0 8 7 0 0 1 433 
6 0 9 6 0 0 1 434 
9 0 10 7 0 0 1 436 
2 0 7 9 0 0 1 436 
2 0 3 4 0 0 1 438 
2 0 6 8 0 0 1 438 
0 0 0 0 0 0 1 543 
0 0 0 0 0 0 1 440 
4 3 0 3 0 0 2 445 441 
5 7 0 7 0 0 2 449 442 
8 10 0 8 0 0 2 458 443 
2 9 0 8 0 0 1 444 
2 7 0 8 0 0 2 454 446 
8 8 0 8 0 0 3 458 454 448 
9 7 0 10 0 0 1 447 
10 9 0 10 0 0 1 448 
5 10 0 9 0 0 2 452 450 
6 8 0 8 0 0 2 458 453 
8 10 0 10 0 0 1 451 
10 10 0 4 0 0 1 453 
4 6 0 7 0 0 1 453 
10 9 0 7 0 0 1 455 
10 5 0 10 0 0 1 455 
7 5 0 7 0 0 1 456 
4 4 0 4 0 0 1 457 
9 10 0 7 0 0 1 459 
8 4 0 6 0 0 1 459 
2 9 0 9 0 0 1 460 
0 0 0 0 0 0 1 543 
0 0 0 0 0 0 2 462 463 
6 0 0 2 3 0 2 465 464 
4 0 0 5 7 0 2 466 464 
9 0 0 6 10 0 2 468 467 
8 0 0 6 6 0 1 466 
9 0 0 9 6 0 1 467 
1 0 0 6 10 0 1 469 
3 0 0 8 10 0 1 469 
2 0 0 9 8 0 1 470 
3 0 0 9 7 0 2 472 471 
10 0 0 9 8 0 1 473 
6 0 0 10 9 0 1 473 
4 0 0 4 9 0 1 474 
9 0 0 9 7 0 1 475 
6 0 0 10 7 0 2 480 476 
9 0 0 9 10 0 1 477 
7 0 0 7 9 0 1 478 
1 0 0 7 4 0 1 479 
10 0 0 9 4 0 1 481 
8 0 0 10 8 0 1 481 
4 0 0 6 8 0 1 482 
0 0 0 0 0 0 1 543 
0 0 0 0 0 0 3 484 485 487 
8 0 0 0 2 0 1 486 
7 0 0 0 8 0 1 486 
9 0 0 0 6 0 2 491 488 
6 0 0 0 4 0 2 491 490 
3 0 0 0 8 0 1 489 
1 0 0 0 8 0 1 490 
6 0 0 0 10 0 1 492 
4 0 0 0 9 0 1 492 
4 0 0 0 10 0 1 493 
10 0 0 0 10 0 1 494 
0 0 0 0 0 0 1 543 
0 0 0 0 0 0 2 496 497 
1 0 1 0 0 0 2 500 498 
9 0 7 0 0 0 2 500 499 
1 0 10 0 0 0 1 499 
3 0 8 0 0 0 2 504 501 
2 0 10 0 0 0 2 504 501 
7 0 9 0 0 0 1 502 
4 0 3 0 0 0 1 503 
2 0 10 0 0 0 1 505 
6 0 10 0 0 0 1 505 
1 0 7 0 0 0 1 506 
0 0 0 0 0 0 1 543 
0 0 0 0 0 0 2 508 511 
10 0 7 0 0 0 1 509 
6 0 5 0 0 0 2 517 510 
1 0 10 0 0 0 2 515 512 
5 0 9 0 0 0 2 515 513 
2 0 6 0 0 0 1 513 
2 0 8 0 0 0 1 514 
5 0 7 0 0 0 1 516 
10 0 10 0 0 0 1 516 
3 0 8 0 0 0 1 518 
9 0 5 0 0 0 1 518 
0 0 0 0 0 0 1 543 
0 0 0 0 0 0 1 520 
1 0 0 0 0 4 2 525 521 
7 0 0 0 0 8 1 522 
2 0 0 0 0 7 1 523 
6 0 0 0 0 10 2 527 524 
7 0 0 0 0 10 2 528 526 
10 0 0 0 0 10 2 528 526 
8 0 0 0 0 3 1 529 
6 0 0 0 0 6 1 528 
1 0 0 0 0 9 1 530 
1 0 0 0 0 8 1 530 
0 0 0 0 0 0 1 543 
0 0 0 0 0 0 3 532 534 536 
7 0 0 3 0 0 1 533 
7 0 0 4 0 0 2 540 535 
1 0 0 9 0 0 2 540 537 
3 0 0 8 0 0 1 537 
4 0 0 10 0 0 1 537 
6 0 0 9 0 0 1 538 
3 0 0 8 0 0 1 539 
6 0 0 7 0 0 1 541 
8 0 0 10 0 0 1 541 
3 0 0 7 0 0 1 542 
0 0 0 0 0 0 1 543 
0 0 0 0 0 0 0 
